0.05 11344
0.05 11344
0.05 11344
0.05 11344
0.05 11344
0.05 11344
0.05 11344
0.05 11344
0.05 11344
0.05 11344
0.1 22688
0.1 22688
0.1 22688
0.1 22688
0.1 22688
0.1 22688
0.1 22688
0.1 22688
0.1 22688
0.1 22688
0.15 34032
0.15 34032
0.15 34032
0.15 34032
0.15 34032
0.15 34032
0.15 34032
0.15 34032
0.15 34032
0.15 34032
0.2 45376
0.2 45376
0.2 45376
0.2 45376
0.2 45376
0.2 45376
0.2 45376
0.2 45376
0.2 45376
0.2 45376
0.25 56720
0.25 56720
0.25 56720
0.25 56720
0.25 56720
0.25 56720
0.25 56720
0.25 56720
0.25 56720
0.25 56720
0.3 68064
0.3 68064
0.3 68064
0.3 68064
0.3 68064
0.3 68064
0.3 68064
0.3 68064
0.3 68064
0.3 68064
0.35 79408
0.35 79408
0.35 79408
0.35 79408
0.35 79408
0.35 79408
0.35 79408
0.35 79408
0.35 79408
0.35 79408
0.4 90752
0.4 90752
0.4 90752
0.4 90752
0.4 90752
0.4 90752
0.4 90752
0.4 90752
0.4 90752
0.4 90752
0.45 102096
0.45 102096
0.45 102096
0.45 102096
0.45 102096
0.45 102096
0.45 102096
0.45 102096
0.45 102096
0.45 102096
0.5 113440
0.5 113440
0.5 113440
0.5 113440
0.5 113440
0.5 113440
0.5 113440
0.5 113440
0.5 113440
0.5 113440
0.55 119112
0.55 119112
0.55 119112
0.55 119112
0.55 119112
0.55 119112
0.55 119112
0.55 119112
0.55 119112
0.55 119112
0.6 130456
0.6 130456
0.6 130456
0.6 130456
0.6 130456
0.6 130456
0.6 130456
0.6 130456
0.6 130456
0.6 130456
0.65 141800
0.65 141800
0.65 141800
0.65 141800
0.65 141800
0.65 141800
0.65 141800
0.65 141800
0.65 141800
0.65 141800
0.7 153144
0.7 153144
0.7 153144
0.7 153144
0.7 153144
0.7 153144
0.7 153144
0.7 153144
0.7 153144
0.7 153144
0.75 164488
0.75 164488
0.75 164488
0.75 164488
0.75 164488
0.75 164488
0.75 164488
0.75 164488
0.75 164488
0.75 164488
0.8 175832
0.8 175832
0.8 175832
0.8 175832
0.8 175832
0.8 175832
0.8 175832
0.8 175832
0.8 175832
0.8 175832
0.85 187176
0.85 187176
0.85 187176
0.85 187176
0.85 187176
0.85 187176
0.85 187176
0.85 187176
0.85 187176
0.85 187176
0.9 198520
0.9 198520
0.9 198520
0.9 198520
0.9 198520
0.9 198520
0.9 198520
0.9 198520
0.9 198520
0.9 198520
0.95 210014
0.95 209864
0.95 209864
0.95 209864
0.95 209964
0.95 209864
0.95 209864
0.95 209964
0.95 209864
0.95 209864
1.0 226880
1.0 226880
1.0 226880
1.0 226880
1.0 226880
1.0 226880
1.0 226880
1.0 226880
1.0 226880
1.0 226880
